Results/Experiment 1 Results/Existing Benchmark/RES_80/i-80-100-15.txt
solutions: 3 nodes: 6  modelTime: 108  solveTime: 20  totalTime: 135  modelSize: 7851  readTime: 7 matchingSize: 40
