Results/Experiment 2 Results/Existing Benchmark/i-80-100-15.lp
clingo version 5.4.0
Reading from tempSRTISolver.lp ...
Solving...
Answer: 1
matched(17,2) matched(12,3) matched(16,4) matched(55,5) matched(66,6) matched(63,7) matched(25,8) matched(29,9) matched(20,10) matched(57,11) matched(3,12) matched(46,13) matched(40,14) matched(54,15) matched(4,16) matched(2,17) matched(35,18) matched(50,19) matched(10,20) matched(72,21) matched(51,22) matched(33,23) matched(58,24) matched(8,25) matched(76,26) matched(70,27) matched(59,28) matched(9,29) matched(69,30) matched(41,31) matched(43,32) matched(23,33) matched(44,34) matched(18,35) matched(42,36) matched(64,37) matched(52,38) matched(67,39) matched(14,40) matched(31,41) matched(36,42) matched(32,43) matched(34,44) matched(80,45) matched(13,46) matched(78,47) matched(53,48) matched(60,49) matched(19,50) matched(22,51) matched(38,52) matched(48,53) matched(15,54) matched(5,55) matched(73,56) matched(11,57) matched(24,58) matched(28,59) matched(49,60) matched(75,61) matched(71,62) matched(7,63) matched(37,64) matched(1,65) matched(6,66) matched(39,67) matched(74,68) matched(30,69) matched(27,70) matched(62,71) matched(21,72) matched(56,73) matched(68,74) matched(61,75) matched(26,76) matched(79,77) matched(47,78) matched(77,79) matched(45,80) matched(65,1)
Optimization: 727
Answer: 2
matched(17,2) matched(12,3) matched(16,4) matched(55,5) matched(66,6) matched(63,7) matched(71,8) matched(29,9) matched(20,10) matched(57,11) matched(3,12) matched(25,13) matched(40,14) matched(54,15) matched(4,16) matched(2,17) matched(35,18) matched(39,19) matched(10,20) matched(72,21) matched(51,22) matched(33,23) matched(58,24) matched(13,25) matched(76,26) matched(70,27) matched(59,28) matched(9,29) matched(46,30) matched(75,31) matched(43,32) matched(23,33) matched(44,34) matched(18,35) matched(42,36) matched(64,37) matched(52,38) matched(19,39) matched(14,40) matched(77,41) matched(36,42) matched(32,43) matched(34,44) matched(80,45) matched(30,46) matched(78,47) matched(53,48) matched(60,49) matched(62,50) matched(22,51) matched(38,52) matched(48,53) matched(15,54) matched(5,55) matched(73,56) matched(11,57) matched(24,58) matched(28,59) matched(49,60) matched(69,61) matched(50,62) matched(7,63) matched(37,64) matched(1,65) matched(6,66) matched(79,67) matched(74,68) matched(61,69) matched(27,70) matched(8,71) matched(21,72) matched(56,73) matched(68,74) matched(31,75) matched(26,76) matched(41,77) matched(47,78) matched(67,79) matched(45,80) matched(65,1)
Optimization: 717
OPTIMUM FOUND

Models       : 2
  Optimum    : yes
Optimization : 717
Calls        : 1
Time         : 28.625s (Solving: 2.46s 1st Model: 1.68s Unsat: 0.56s)
CPU Time     : 28.624s
